qe/outputs/qe/cbrdelay_obs_newl/T=5,eliminate=[I_0,I_1,I_2,I_3,I_4,L_3,L_4,C,B,S_4,lhs=A_4_3].smt2
; benchmark generated from python API
(set-info :status unknown)
(declare-fun S_2 () Real)
(declare-fun L_2 () Real)
(declare-fun A_2 () Real)
(declare-fun L_0 () Real)
(declare-fun S_0 () Real)
(declare-fun A_0 () Real)
(declare-fun A_3 () Real)
(declare-fun S_3 () Real)
(declare-fun A_4 () Real)
(declare-fun loss_rate_tol () Real)
(declare-fun S_1 () Real)
(declare-fun L_1 () Real)
(declare-fun A_1 () Real)
(assert
 (let (($x34 (>= L_0 0.0)))
 (let (($x88799 (<= 0.0 (+ (* (/ 3.0 4.0) A_3) (* (- (/ 3.0 4.0)) A_4) S_2 (* (- 1.0) S_0)))))
 (let (($x88800 (not $x88799)))
 (let ((?x1092 (* (- 1.0) S_0)))
 (let (($x86390 (<= 0.0 (+ (* (/ 3.0 5.0) L_2) (* (- (/ 3.0 5.0)) A_4) (* (/ 8.0 5.0) S_2) ?x1092))))
 (let (($x86392 (not $x86390)))
 (let ((?x10580 (* (/ 3.0 2.0) loss_rate_tol)))
 (let ((?x5112 (* (- (/ 3.0 2.0)) A_4)))
 (let ((?x2316 (* (/ 3.0 2.0) A_2)))
 (let (($x85667 (not (<= 0.0 (+ ?x2316 ?x5112 S_2 ?x1092 ?x10580)))))
 (let ((?x2309 (* 2.0 loss_rate_tol)))
 (let ((?x357 (* (- 1.0) S_1)))
 (let ((?x1234 (* (- 2.0) A_4)))
 (let ((?x1329 (* 2.0 A_3)))
 (let ((?x275 (* (- 1.0) L_2)))
 (let (($x85381 (not (<= (- 5.0) (+ A_2 ?x275 ?x1329 ?x1234 ?x357 ?x2309)))))
 (let (($x83461 (not (<= 0.0 loss_rate_tol))))
 (let (($x85094 (not (<= (- 5.0) (+ ?x1329 ?x1234 A_1 ?x1092 (* (- 1.0) L_1) ?x2309)))))
 (let (($x87187 (<= 0.0 (+ (* (/ 3.0 4.0) L_2) (* (/ 7.0 4.0) S_3) (* (- (/ 3.0 4.0)) A_4) ?x357))))
 (let (($x87188 (not $x87187)))
 (let (($x85361 (<= 0.0 (+ ?x2316 (* (/ 3.0 2.0) L_2) S_3 ?x5112 ?x357 (* (- (/ 3.0 2.0)) L_1) ?x10580))))
 (let (($x85362 (not $x85361)))
 (let ((?x258 (* (- 1.0) L_1)))
 (let ((?x391 (* (- 1.0) A_4)))
 (let (($x83846 (not (<= 0.0 (+ A_3 ?x391 A_1 ?x357 ?x258 loss_rate_tol)))))
 (let (($x78013 (<= 0.0 (+ ?x275 L_1))))
 (let (($x68729 (not $x78013)))
 (let ((?x1080 (* (- 2.0) L_1)))
 (let ((?x363 (* (- 1.0) S_2)))
 (let ((?x1079 (* 2.0 A_1)))
 (let (($x88186 (not (<= 0.0 (+ ?x1329 ?x1234 ?x1079 ?x363 ?x1092 ?x1080 ?x2309)))))
 (let (($x87925 (not (<= 0.0 (+ (* (/ 2.0 5.0) A_2) (* (- (/ 2.0 5.0)) A_4) S_1 ?x1092)))))
 (let (($x86182 (not (<= 0.0 (+ (* (/ 1.0 2.0) A_3) (* (- (/ 1.0 2.0)) A_4) S_1 ?x1092)))))
 (let (($x84683 (<= 0.0 (+ (* (/ 1.0 4.0) L_2) (* (- (/ 1.0 4.0)) A_4) S_1 (* (- (/ 3.0 4.0)) S_0)))))
 (let (($x84684 (not $x84683)))
 (let ((?x6122 (* (/ 2.0 3.0) loss_rate_tol)))
 (let ((?x4121 (* (- (/ 2.0 3.0)) L_1)))
 (let ((?x6272 (* (/ 2.0 3.0) A_1)))
 (let ((?x5992 (* (- (/ 2.0 3.0)) A_4)))
 (let ((?x6230 (* (/ 2.0 3.0) L_2)))
 (let (($x84510 (not (<= 0.0 (+ ?x6230 ?x5992 ?x6272 S_1 ?x1092 ?x4121 ?x6122)))))
 (let (($x83107 (not (<= 0.0 (+ A_2 ?x391 A_1 ?x1092 ?x258 loss_rate_tol)))))
 (let (($x83768 (<= 0.0 (+ A_3 ?x391 A_1 (* (- 1.0) A_0) ?x258 loss_rate_tol L_0))))
 (let (($x83769 (not $x83768)))
 (let (($x90683 (not (<= 0.0 (+ (* (/ 1.0 2.0) A_3) (* (- (/ 1.0 2.0)) A_4) S_2 ?x357)))))
 (let (($x87352 (not (<= 0.0 (+ A_2 ?x391 S_2 ?x357 loss_rate_tol)))))
 (let (($x85342 (<= 0.0 (+ (* (/ 2.0 5.0) L_2) (* (- (/ 2.0 5.0)) A_4) (* (/ 7.0 5.0) S_2) ?x357))))
 (let (($x85343 (not $x85342)))
 (let ((?x2183 (* (/ 1.0 2.0) loss_rate_tol)))
 (let ((?x3127 (* (/ 1.0 2.0) L_1)))
 (let ((?x3348 (* (- (/ 1.0 2.0)) A_1)))
 (let ((?x1887 (* (- (/ 1.0 2.0)) A_4)))
 (let ((?x1885 (* (/ 1.0 2.0) A_3)))
 (let ((?x4835 (* (- (/ 1.0 2.0)) L_2)))
 (let ((?x2456 (* (/ 1.0 2.0) A_2)))
 (let ((?x10449 (+ ?x2456 ?x4835 ?x1885 ?x1887 ?x3348 ?x3127 ?x2183)))
 (let (($x85058 (not (<= 0.0 ?x10449))))
 (let (($x87358 (not (<= 0.0 (+ A_2 ?x391 S_1 ?x1092 loss_rate_tol)))))
 (let ((?x9001 (* 3.0 loss_rate_tol)))
 (let ((?x7217 (* (- 3.0) A_4)))
 (let ((?x2338 (* 3.0 A_3)))
 (let (($x86427 (not (<= (- 10.0) (+ A_2 ?x275 ?x2338 ?x7217 ?x1092 ?x9001)))))
 (let (($x83639 (not (<= 0.0 (+ A_2 ?x275 A_3 ?x391 ?x363 loss_rate_tol)))))
 (let ((?x1112 (* (- 1.0) A_0)))
 (let ((?x1878 (* (- (/ 3.0 4.0)) A_4)))
 (let ((?x25434 (* (/ 7.0 4.0) S_3)))
 (let ((?x4719 (* (/ 3.0 4.0) L_2)))
 (let (($x86863 (not (<= 0.0 (+ ?x4719 ?x25434 ?x1878 ?x1112 L_0)))))
 (let (($x85399 (not (<= (- 5.0) (+ A_2 ?x275 ?x1329 ?x1234 ?x1112 ?x2309 L_0)))))
 (let (($x84805 (not (<= 0.0 (+ ?x2316 S_3 ?x5112 ?x1112 ?x10580 L_0)))))
 (let (($x85606 (not (<= 0.0 (+ (* 2.0 A_2) S_3 ?x1234 ?x1092 ?x2309)))))
 (let (($x4093 (<= (+ ?x4835 (* (- 1.0) S_3) (* (/ 1.0 2.0) A_4) (* (/ 1.0 2.0) S_0)) 0.0)))
 (let (($x5907 (not $x4093)))
 (let (($x79882 (<= 0.0 (+ A_2 ?x275 ?x391 A_3 (* (- 1.0) A_1) L_1 loss_rate_tol))))
 (let (($x83394 (not $x79882)))
 (let (($x85340 (not (<= (- (/ 15.0 2.0)) (+ (* (/ 3.0 2.0) L_2) ?x5112 (* (/ 5.0 2.0) S_2) ?x1092 ?x10580)))))
 (let (($x96807 (or $x83461 (not (<= (- 15.0) (+ ?x2338 ?x7217 S_2 ?x1092 ?x9001))) $x85340 $x86392 $x88800)))
 (let (($x88373 (not (<= 0.0 (+ ?x1885 ?x1887 ?x1112 S_2 L_0)))))
 (let (($x85448 (not (<= 0.0 (+ A_2 ?x391 ?x1112 S_2 loss_rate_tol L_0)))))
 (let (($x84668 (<= 0.0 (+ (* (/ 2.0 5.0) L_2) (* (- (/ 2.0 5.0)) A_4) ?x1112 (* (/ 7.0 5.0) S_2) L_0))))
 (let (($x84669 (not $x84668)))
 (let (($x88149 (not (<= (- 5.0) (+ (* (/ 1.0 4.0) A_3) (* (- (/ 1.0 4.0)) A_4))))))
 (let (($x87727 (not (<= (- 5.0) (+ (* (/ 1.0 6.0) L_2) (* (- (/ 1.0 6.0)) A_4) (* (/ 1.0 6.0) S_1))))))
 (let ((?x4772 (* (/ 1.0 3.0) loss_rate_tol)))
 (let ((?x6615 (* (- (/ 1.0 3.0)) L_1)))
 (let ((?x3936 (* (/ 1.0 3.0) A_1)))
 (let ((?x6614 (* (- (/ 1.0 3.0)) A_4)))
 (let ((?x6610 (* (/ 1.0 3.0) L_2)))
 (let ((?x6617 (+ ?x6610 ?x6614 ?x3936 ?x6615 ?x4772)))
 (let (($x83938 (not (<= (- 5.0) ?x6617))))
 (let ((?x385 (* (- 1.0) A_2)))
 (let ((?x1096 (+ ?x385 L_2 S_2)))
 (let (($x508 (<= ?x1096 (- 5.0))))
 (let (($x83499 (not $x508)))
 (let (($x86762 (not (<= (- 35.0) (+ L_2 ?x391 S_0)))))
 (let (($x86339 (not (<= (- 5.0) (+ A_3 ?x391 A_1 ?x363 ?x258 loss_rate_tol)))))
 (let (($x83883 (not (<= (- 5.0) (+ (* (/ 1.0 5.0) A_2) (* (- (/ 1.0 5.0)) A_4))))))
 (let (($x494 (<= (+ ?x385 L_2 A_1 ?x258) (- 5.0))))
 (let (($x84339 (not (<= (- 5.0) (+ L_2 ?x391 (* 2.0 S_2) ?x357 loss_rate_tol)))))
 (let (($x96708 (or $x83461 $x84339 (not (<= (- 10.0) (+ ?x1329 ?x1234 S_2 ?x357 ?x2309))) $x85343 $x90683)))
 (let (($x84371 (not (<= 0.0 (+ L_2 ?x391 A_1 S_2 ?x1092 ?x258 loss_rate_tol)))))
 (let (($x84243 (<= 0.0 (+ (* 2.0 L_2) (* (- 2.0) A_3) (* 3.0 S_2) ?x357))))
 (let (($x84167 (not (<= 0.0 (+ ?x6230 ?x5992 ?x6272 S_2 ?x357 ?x4121 ?x6122)))))
 (let (($x87604 (<= (- 5.0) (+ L_2 ?x391 ?x1112 (* 2.0 S_2) loss_rate_tol L_0))))
 (let (($x96499 (or $x83461 $x84669 (not (<= (- 10.0) (+ ?x1329 ?x1234 ?x1112 S_2 ?x2309 L_0))) (not $x87604) $x88373)))
 (let (($x87548 (not (<= (- 5.0) (+ (* (/ 1.0 4.0) L_2) (* (/ 1.0 4.0) S_3) (* (- (/ 1.0 4.0)) A_4))))))
 (let (($x546 (not (<= (- 10.0) (+ A_3 ?x391 loss_rate_tol)))))
 (let (($x84734 (not (<= (- 5.0) (+ (* (/ 1.0 5.0) L_2) (* (- (/ 1.0 5.0)) A_4) (* (/ 1.0 5.0) S_2))))))
 (let (($x87619 (not (<= 0.0 (+ (* (/ 1.0 5.0) A_2) (* (- (/ 1.0 5.0)) A_4) ?x1112 S_1 L_0)))))
 (let (($x87472 (<= 0.0 (+ L_2 ?x391 (* (- 6.0) A_0) (* 7.0 S_1) (* 6.0 L_0)))))
 (let (($x87473 (not $x87472)))
 (let (($x87019 (not (<= 0.0 (+ ?x2456 ?x1887 ?x1112 S_1 ?x2183 L_0)))))
 (let (($x84983 (not (<= 0.0 (+ (* (/ 1.0 4.0) A_3) (* (- (/ 1.0 4.0)) A_4) ?x1112 S_1 L_0)))))
 (let ((?x20952 (* (- (/ 1.0 6.0)) L_1)))
 (let ((?x17756 (* (/ 1.0 6.0) A_1)))
 (let ((?x17350 (* (- (/ 1.0 6.0)) A_4)))
 (let ((?x20539 (* (/ 1.0 6.0) L_2)))
 (let (($x85993 (not (<= (- 5.0) (+ ?x20539 ?x17350 ?x17756 ?x20952)))))
 (let (($x84485 (<= (- 5.0) (+ ?x6610 (* (- (/ 1.0 3.0)) A_3) (* (/ 1.0 3.0) S_0)))))
 (let (($x84486 (not $x84485)))
 (let (($x2720 (<= (+ (* (/ 4.0 5.0) A_2) L_2 (* (/ 1.0 5.0) A_4) (* (- 1.0) A_3) ?x258) 0.0)))
 (let (($x51 (= L_1 L_0)))
 (let (($x87669 (not (<= (- (/ 15.0 2.0)) (+ ?x2456 ?x1887 ?x2183)))))
 (let (($x96235 (or $x546 $x83461 $x83883 $x85993 $x86762 $x87669 $x88149 (not (<= (- 25.0) (+ L_2 ?x391 S_0 loss_rate_tol))) (not (<= (- (/ 20.0 3.0)) ?x6617)))))
 (let (($x87698 (not (<= (- 20.0) (+ L_2 ?x391 S_1 loss_rate_tol)))))
 (let (($x87691 (<= (- 5.0) (+ ?x385 L_2 S_1))))
 (let (($x552 (not (<= (- 5.0) (+ ?x385 ?x1329 ?x391 loss_rate_tol)))))
 (let (($x87192 (not (<= 0.0 (+ (* (/ 1.0 2.0) L_2) (* (/ 3.0 2.0) S_3) ?x1887 ?x363)))))
 (let (($x84111 (not (<= 0.0 (+ S_3 ?x1234 ?x1329 ?x363 ?x2309)))))
 (let ((?x6670 (* (/ 4.0 3.0) loss_rate_tol)))
 (let ((?x6669 (* (- (/ 4.0 3.0)) L_1)))
 (let ((?x6668 (* (/ 4.0 3.0) A_1)))
 (let ((?x6667 (* (- (/ 4.0 3.0)) A_4)))
 (let ((?x6665 (* (/ 4.0 3.0) L_2)))
 (let (($x84397 (not (<= 0.0 (+ ?x6665 S_3 ?x6667 ?x6668 ?x1092 ?x6669 ?x6670)))))
 (let (($x83789 (not (<= 0.0 (+ (* (- (/ 4.0 5.0)) A_2) L_2 S_3 (* (- (/ 1.0 5.0)) A_4))))))
 (let ((?x388 (* (- 1.0) A_3)))
 (let ((?x389 (+ A_2 ?x388)))
 (let (($x11105 (<= ?x389 (- 5.0))))
 (let (($x89329 (<= (- 5.0) (+ L_2 ?x391 (* (/ 5.0 2.0) S_1) (* (- (/ 3.0 2.0)) S_0) loss_rate_tol))))
 (let (($x96030 (or (not (<= (- 10.0) (+ ?x1329 ?x1234 S_1 ?x1092 ?x2309))) $x83461 $x84684 $x86182 $x87925 (not $x89329) (not (<= (- 5.0) (+ A_2 ?x391 S_1 ?x1092 loss_rate_tol))))))
 (let (($x85032 (<= (- 5.0) (+ A_3 ?x391 (* (- 1.0) A_1) S_2 L_1 loss_rate_tol))))
 (let (($x85033 (not $x85032)))
 (let (($x191175 (or $x51 $x83461 (not (<= 0.0 (+ A_2 ?x275 (* (- 1.0) S_3)))) $x84397 $x85094)))
 (let ((?x8971 (* 4.0 loss_rate_tol)))
 (let ((?x8985 (* 4.0 A_3)))
 (let ((?x7649 (* (- 4.0) A_4)))
 (let (($x85002 (not (<= 0.0 (+ S_3 ?x7649 ?x8985 ?x1092 ?x8971)))))
 (let ((?x6656 (* (/ 2.0 3.0) L_1)))
 (let ((?x6655 (* (- (/ 2.0 3.0)) A_1)))
 (let ((?x9302 (+ ?x6610 ?x6614 ?x6655 S_2 ?x6656 ?x4772)))
 (let (($x190420 (or $x51 $x83461 (not (<= (- 5.0) ?x9302)) (not (<= (- 5.0) (+ ?x1885 ?x1887 ?x3348 (* (/ 1.0 2.0) S_2) ?x3127 ?x2183))))))
 (let (($x89254 (<= 0.0 (+ (* (/ 1.0 4.0) A_3) (* (- (/ 1.0 4.0)) A_4) (* (- 1.0) A_1) S_2 L_1))))
 (let (($x89255 (not $x89254)))
 (let ((?x383 (* (- 1.0) A_1)))
 (let ((?x2653 (* (- (/ 1.0 5.0)) A_4)))
 (let ((?x14883 (* (/ 1.0 5.0) L_2)))
 (let (($x85602 (not (<= 0.0 (+ ?x14883 ?x2653 ?x383 (* (/ 6.0 5.0) S_2) L_1)))))
 (let (($x95293 (or $x83461 $x85033 $x85602 (not (<= (- (/ 5.0 3.0)) (+ ?x6610 ?x6614 ?x6655 ?x6656 S_2 ?x4772))) $x89255)))
 (let (($x27498 (<= (+ (* 2.0 A_2) (* (- 2.0) A_3) S_1 ?x1092) 0.0)))
 (let (($x84006 (not (<= 0.0 (+ S_3 ?x7217 ?x2338 ?x1112 ?x9001 L_0)))))
 (let (($x84802 (not (<= 0.0 (+ A_2 S_3 ?x391 ?x363 loss_rate_tol)))))
 (let (($x87692 (not $x87691)))
 (let (($x83392 (not (<= (- 5.0) (+ A_3 ?x391 loss_rate_tol)))))
 (let (($x454 (not (<= 0.0 (+ ?x385 (* (/ 5.0 4.0) A_3) (* (- (/ 1.0 4.0)) A_4))))))
 (let (($x83086 (not (<= 0.0 (+ ?x391 A_3 ?x1112 S_1 loss_rate_tol L_0)))))
 (let (($x88339 (not (<= (- 20.0) (+ (* 4.0 L_2) (* 5.0 S_3) ?x7649 ?x1092 ?x8971)))))
 (let ((?x1086 (* 2.0 L_1)))
 (let ((?x1085 (* (- 2.0) A_1)))
 (let ((?x1084 (* (- 2.0) L_2)))
 (let ((?x1444 (* 3.0 A_2)))
 (let (($x83381 (not (<= 0.0 (+ ?x1444 ?x1084 ?x391 ?x1085 ?x1086 loss_rate_tol)))))
 (let (($x85670 (not (<= 0.0 (+ ?x2456 ?x1887 ?x383 S_2 L_1 ?x2183)))))
 (let ((?x4021 (* (/ 1.0 3.0) L_1)))
 (let ((?x6114 (* (- (/ 1.0 3.0)) A_1)))
 (let ((?x6673 (+ ?x6230 S_3 ?x5992 ?x6114 ?x4021 ?x6122)))
 (let (($x86471 (not (<= 0.0 (+ ?x6610 S_3 ?x6614 ?x6655 ?x6656)))))
 (let (($x83771 (not (<= 0.0 (+ L_2 S_3 ?x391 A_1 ?x357 ?x258 loss_rate_tol)))))
 (let (($x83672 (<= 0.0 (+ L_2 S_3 ?x391 A_1 ?x1112 ?x258 loss_rate_tol L_0))))
 (let (($x83673 (not $x83672)))
 (let (($x84213 (<= (- 5.0) (+ ?x385 (* 2.0 L_2) (* 2.0 S_3) ?x391 loss_rate_tol))))
 (let (($x84214 (not $x84213)))
 (let ((?x31493 (+ L_2 ?x391 (* (- 3.0) A_0) (* 4.0 S_1) loss_rate_tol (* 3.0 L_0))))
 (let (($x94167 (or $x83461 (not (<= (- 5.0) (+ A_3 ?x391 ?x1112 S_1 loss_rate_tol L_0))) $x84983 $x87473 $x87619 (not (<= (- (/ 5.0 2.0)) (+ ?x2456 ?x1887 ?x1112 S_1 ?x2183 L_0))) (not (<= (- 5.0) ?x31493)))))
 (let (($x88414 (<= (- 15.0) (+ (* 3.0 L_2) (* 4.0 S_3) ?x7217 ?x1112 ?x9001 L_0))))
 (let (($x84203 (not (<= 0.0 (+ ?x385 L_2 A_3 ?x391 ?x1079 ?x1092 ?x1080 loss_rate_tol)))))
 (let (($x89660 (not (<= (- 10.0) (+ (* 2.0 L_2) (* 3.0 S_3) ?x1234 ?x363 ?x2309)))))
 (let (($x189013 (or $x51 $x83461 (not (<= (- 5.0) (+ S_3 ?x1234 ?x1329 ?x383 L_1 ?x2309))))))
 (let (($x84894 (not (<= 0.0 (+ ?x1234 ?x1329 ?x1112 S_2 ?x2309 L_0)))))
 (let (($x92448 (or $x546 $x83461 (not (<= (- (/ 15.0 2.0)) (+ (* (/ 1.0 2.0) L_2) ?x1887 (* (/ 1.0 2.0) S_2) ?x2183))) $x84734 $x88149)))
 (let (($x84634 (not (<= 0.0 (+ ?x6610 ?x6614 ?x3936 ?x1112 S_1 ?x6615 ?x4772 L_0)))))
 (let ((?x2370 (* (- (/ 1.0 2.0)) L_1)))
 (let ((?x2852 (* (/ 1.0 2.0) A_1)))
 (let (($x82157 (<= 0.0 (+ ?x2456 ?x1887 ?x2852 ?x1112 (* (/ 1.0 2.0) S_1) ?x2370 ?x2183 L_0))))
 (let (($x82461 (not $x82157)))
 (let (($x84549 (not (<= 0.0 (+ ?x6230 ?x5992 ?x6272 ?x1112 S_2 ?x4121 ?x6122 L_0)))))
 (let (($x84780 (not (<= 0.0 (+ A_2 S_3 ?x391 ?x383 L_1 loss_rate_tol)))))
 (let (($x85073 (not (<= 0.0 (+ ?x391 A_3 ?x383 S_2 L_1 loss_rate_tol)))))
 (let (($x61 (= L_2 L_1)))
 (let (($x89947 (not (<= (- 15.0) (+ (* 3.0 L_2) (* 4.0 S_3) ?x7217 ?x357 ?x9001)))))
 (let (($x85376 (not (<= 0.0 (+ ?x2316 S_3 ?x5112 ?x357 ?x10580)))))
 (let (($x47481 (<= ?x10449 0.0)))
 (let (($x195907 (or (not (<= (+ (* (- (/ 1.0 2.0)) A_2) (* (/ 1.0 2.0) A_4) ?x357 S_0) 0.0)) $x83107 $x83461 $x84510 $x85094)))
 (let ((?x7672 (* 2.0 S_3)))
 (let ((?x1078 (* 2.0 L_2)))
 (let (($x88450 (not (<= 0.0 (+ ?x385 ?x1078 ?x7672 ?x391 A_1 ?x363 ?x258 loss_rate_tol)))))
 (let (($x83625 (not (<= 0.0 (+ S_3 ?x1234 ?x1329 ?x383 L_1 ?x2309)))))
 (let (($x90654 (or $x61 $x83461 (not (<= (- 5.0) (+ ?x385 L_2 S_3 ?x391 A_3 loss_rate_tol))))))
 (let (($x83676 (not (<= 0.0 (+ ?x6230 S_3 ?x5992 ?x6272 ?x363 ?x4121 ?x6122)))))
 (let (($x89237 (or $x61 $x83461 (not (<= (- 5.0) (+ (* (- (/ 1.0 2.0)) A_2) L_2 S_3 ?x1887 ?x2183))))))
 (let (($x80040 (not (<= 0.0 (+ ?x1234 ?x1329 S_1 ?x1092 ?x2309)))))
 (let (($x81176 (not (<= 0.0 (+ ?x385 L_2 S_3 ?x391 A_3 loss_rate_tol)))))
 (let (($x88313 (or $x61 (<= (+ ?x385 L_2 (* (/ 2.0 3.0) S_3) (* (/ 1.0 3.0) S_0)) (- 5.0)) (<= (+ ?x385 L_2 (* (/ 1.0 2.0) S_3) ?x2852 ?x2370) (- 5.0)))))
 (let (($x86970 (or $x61 (<= (+ (* (- 2.0) A_2) ?x1078 (* 3.0 S_1) ?x1092) (- 10.0)))))
 (let (($x1864 (<= (+ A_1 ?x363 ?x258) 0.0)))
 (let (($x83458 (not (<= 0.0 (+ ?x1444 ?x1084 ?x391 ?x1085 ?x1086)))))
 (let (($x83558 (not (<= (- 5.0) (+ A_2 ?x275 A_3 ?x391 ?x383 L_1 loss_rate_tol)))))
 (let ((?x1453 (* (- 4.0) L_1)))
 (let ((?x1452 (* 4.0 A_1)))
 (let ((?x1451 (* 4.0 L_2)))
 (let ((?x1450 (* (- 4.0) A_2)))
 (let ((?x1093 (* (- 3.0) L_1)))
 (let ((?x1091 (* 3.0 A_1)))
 (let ((?x1090 (* 3.0 L_2)))
 (let ((?x1089 (* (- 3.0) A_2)))
 (let (($x105774 (or $x61 (<= (+ (* (- 2.0) A_2) ?x1078 S_3 ?x1079 ?x363 ?x1080) 0.0))))
 (let (($x81462 (<= (+ S_3 (* (- 3.0) A_1) (* 2.0 S_0) (* 3.0 L_1)) (- 15.0))))
 (let (($x103974 (or $x61 (<= (+ (* (- 2.0) A_2) ?x1078 ?x1079 S_2 ?x357 ?x1080) 0.0))))
 (let (($x109009 (or $x61 (<= (+ (* (- 2.0) A_2) ?x1078 ?x1079 ?x1112 S_2 ?x1080 L_0) 0.0))))
 (let (($x193050 (or $x61 (<= (+ (* (- 2.0) A_2) ?x1078 ?x1079 S_1 ?x1092 ?x1080) 0.0))))
 (let (($x108 (>= S_1 S_0)))
 (let (($x111 (>= S_2 S_1)))
 (let (($x119 (>= A_1 A_0)))
 (let (($x120 (>= A_2 A_1)))
 (let (($x122 (>= A_4 A_3)))
 (and (<= (+ A_2 ?x275) S_3) $x122 $x120 $x119 $x111 $x108 (or $x51 (not (<= 0.0 (+ ?x258 L_0)))) (or $x61 $x508) (or $x51 (<= (+ ?x383 S_1 L_1) (- 5.0))) (or $x51 (<= (+ A_2 ?x275 ?x1085 S_0 ?x1086) (- 5.0))) (or $x61 (<= (+ ?x1089 ?x1090 ?x1091 S_2 ?x1092 ?x1093) 0.0)) $x193050 (or $x61 (<= (+ ?x385 L_2 A_1 ?x1112 S_1 ?x258 L_0) 0.0)) (or $x51 $x83394 $x83461) (or $x61 $x68729) (or $x51 (<= (+ ?x383 S_0 L_1) (- 10.0))) (or $x51 (<= (+ ?x1085 S_2 S_0 ?x1086) (- 10.0))) $x109009 $x103974 (or $x51 $x81462) (or $x51 (<= (+ A_2 ?x275 ?x383 ?x363 S_0 L_1) 0.0)) $x105774 (or $x1864 (<= (+ (* (/ 1.0 3.0) S_3) ?x363 (* (/ 2.0 3.0) S_0)) 0.0)) (or $x61 (<= (+ (* (- 2.0) A_2) ?x1078 S_3 A_1 ?x258) (- 5.0))) (or $x61 (<= (+ ?x1089 ?x1090 S_3 ?x1091 ?x357 ?x1093) 0.0)) (or $x61 (<= (+ ?x1089 ?x1090 S_3 ?x1091 ?x1112 ?x1093 L_0) 0.0)) (<= (+ ?x383 S_1 L_1) 0.0) (or $x51 $x83458 $x83461 $x83846) (or $x51 $x83458 $x83461 $x83769) (or $x51 $x83458 $x83461 $x83639) (or $x61 (<= (+ ?x1450 ?x1451 S_3 ?x1452 ?x1092 ?x1453) 0.0)) (or $x51 $x83381 $x83461 $x83769) (or $x51 $x83381 $x83461 $x83639) (or $x51 $x83381 $x83461 $x83846) (or $x51 $x83381 $x83461 $x83558) (or (<= (+ ?x2456 ?x1887 S_1 ?x1092) 0.0) $x83107 $x83461 $x83769 $x84510) (or $x51 $x78013 $x83458 $x83461 $x84203) (or $x78013 $x83461 $x85376 $x85381) (or $x51 $x78013 $x83381 $x83461 $x84203) (or $x78013 $x83461 $x83769 $x85448) (or $x78013 $x83461 $x85381 $x85606) (or $x78013 $x83461 $x85399 $x85606) (or $x61 $x83461 $x83625) (or $x51 (<= (+ ?x385 L_2 S_3 ?x383 S_0 L_1) (- 5.0))) (or $x1864 (<= (+ ?x385 L_2 S_3 ?x363 S_0) 0.0)) (or $x61 (<= (+ ?x385 L_2 ?x1112 (* 2.0 S_1) L_0) (- 5.0))) $x86970 (or $x61 (<= (+ (* (- 2.0) A_2) ?x1078 S_3 S_1) (- 10.0))) (or $x1864 (<= (+ ?x363 S_0) (- 5.0))) (or $x454 $x83461 $x84669 $x84894) (or $x83392 $x83461 $x87548) (or $x454 $x83392 $x83461 $x87691 $x87727) $x88313 (or $x51 $x83461 $x85002) (or $x83461 (not (<= (- 10.0) (+ L_2 S_3 ?x391 loss_rate_tol))) $x87548) (or $x51 $x83461 (not (<= (- 5.0) ?x6673))) (or $x81176 $x83461 $x83789) (or $x51 $x83461 $x83676) (or $x51 $x83461 $x83769 $x84549) (or $x51 $x81176 $x83461) (or $x51 $x83461 $x83673) (or $x83086 $x83461 $x84983 $x87473 $x87619) (or $x80040 $x83461 $x84684 $x86182 $x87925) $x89237 (or $x83461 $x85073 $x85602 (<= 0.0 ?x9302)) (or $x83107 $x83461 $x83769 $x83789 $x84397) (or $x78013 $x83461 $x84780) (or $x78013 $x83461 $x85399 $x85448) (or $x83392 $x83461 $x84734 $x88149) (or $x83461 $x83789 $x84214) (or $x51 $x83461 (not (<= 0.0 (+ ?x1234 ?x1329 S_2 ?x357 ?x2309)))) (or $x51 $x83461 $x83771) (or $x51 $x83461 $x83846 $x84167) (or $x494 $x83392 $x83461 $x83883 $x84485 $x86762) (or $x51 $x83461 $x83938 $x85094) (or $x51 $x80040 $x83461) (or $x83461 $x83676 $x87192) (or $x51 $x83461 $x84111) (or $x78013 $x83461 $x84802) (or $x78013 $x83461 $x83769 $x84805) $x90654 (or $x83461 $x83625 $x86471) (or $x83461 (not (<= 0.0 (+ S_3 ?x7217 ?x2338 ?x357 ?x9001))) $x87188) (or $x47481 $x83461 $x84983 $x87019 $x87473 $x87619) (or $x83461 $x83673 $x86863) (or $x51 $x83461 $x88450) (or $x83461 $x83789 $x88450) (or $x61 $x83086 $x83461) (or $x61 $x83461 $x84006) (or $x78013 $x83461 $x83639 $x87358) (or $x61 $x83461 (not (<= 0.0 (+ ?x1234 ?x1329 S_2 ?x357 ?x2309)))) (or $x454 $x83461 (not (<= 0.0 (+ ?x1234 ?x1329 S_2 ?x357 ?x2309))) $x85343) (or $x83461 $x83771 $x87188) (or $x454 $x83461 $x83846 $x84371 $x86392) (or $x51 $x83461 (not (<= 0.0 (+ ?x7217 ?x2338 S_2 ?x1092 ?x9001)))) (or $x51 $x83461 $x84371 $x85094) (or $x51 $x83461 $x83846 $x84371) (or $x51 $x83461 $x84371 $x88186) (or $x51 $x83461 $x83769 $x84371) (or $x11105 $x83461 $x83769 $x83938 $x87727 $x88149) (or $x61 $x83461 $x84111) (or $x51 $x83461 $x83846 $x84634) $x195907 (or $x83107 $x83461 $x84510 $x84684 $x85094 $x86182 $x87925) (or $x51 $x83107 $x83461 $x84510 $x85094) (or $x83461 $x84371 $x85094 $x86392 $x88800) (or $x82461 $x83461 $x83769 $x84634 $x84983 $x87473 $x87619) (or $x47481 $x83461 $x85376 $x87188) (or $x47481 $x83461 $x84805 $x86863) (or $x83461 $x87188 $x89947) (or $x78013 $x83461 $x85058 $x87019) (or $x78013 $x83461 $x83639 $x87019) (or $x78013 $x83461 $x85399 $x87019) (or $x78013 $x83461 $x83769 $x87019) (or $x83461 $x84983 $x85399 $x87019 $x87473 $x87619) (or $x61 $x83461 $x85073) (or $x83461 $x84780 $x86471) (or $x83461 $x84805 $x85058 $x86863) (or $x78013 $x83461 $x83769 $x85606) (or $x78013 $x83461 $x85058 $x85606) (or $x83461 $x83769 $x84549 $x84669 $x88373) (or $x83461 $x84669 $x85399 $x85448 $x88373) (or $x78013 $x83461 $x85606 $x86427) (or $x78013 $x83461 $x83846 $x85606) (or $x51 $x83461 $x84894) (or $x83461 $x84006 $x86863) (or $x78013 $x83461 $x83639 $x85606) (or $x78013 $x83461 $x84203 $x85606) (or $x78013 $x83461 $x83639 $x85376) (or $x78013 $x83461 $x85058 $x87358) (or $x51 $x82461 $x83461 $x83769 $x84634) (or $x78013 $x83461 $x84203 $x85667) (or $x78013 $x83461 $x85058 $x85670) (or $x78013 $x83461 $x83846 $x85376) (or $x78013 $x83461 $x85058 $x85376) (or $x83461 $x85376 $x85381 $x87188) (or $x78013 $x83461 $x83846 $x85667) (or $x78013 $x83461 $x85381 $x85667) (or $x78013 $x83461 $x83639 $x84805) (or $x51 $x83461 $x83769 $x83938) (or $x83461 $x83938 $x84734 $x85094 $x88149) $x92448 (or $x78013 $x83461 $x83769 $x85667) (or $x78013 $x83461 $x85399 $x85667) (or $x78013 $x83461 $x84805 $x85058) (or $x78013 $x83461 (not (<= 0.0 (+ S_3 ?x7217 ?x2338 ?x357 ?x9001)))) (or $x454 $x83392 $x83461 $x83883 $x85993 $x86762) (or $x78013 $x83461 $x85381 $x87352) (or $x78013 $x83461 $x83846 $x87352) (or $x83461 $x83769 $x83938 $x87548) (or $x83461 $x83938 $x85094 $x87548) (or $x83461 $x83938 $x86339 $x87548) (or $x83461 $x83846 $x83938 $x84734 $x88149) (or $x78013 $x83461 $x85002) (or $x78013 $x83461 $x84805 $x85399) (or $x5907 $x83107 $x83461 $x84397 $x88186) (or $x78013 $x83461 (not (<= 0.0 (+ ?x7217 ?x2338 S_2 ?x1092 ?x9001)))) (or $x47481 $x83461 $x85667 $x86392 $x88800) (or $x454 $x83461 (not (<= 0.0 (+ ?x7217 ?x2338 S_2 ?x1092 ?x9001))) $x86392) (or $x1864 $x11105 $x83461 $x83769 $x84486 $x88149) (or $x494 $x83461 $x83499 $x84486 $x86339 $x88149) (or $x78013 $x83461 $x85058 $x85448) (or $x78013 $x83461 $x84894) (or $x78013 $x80040 $x83461) (or $x78013 $x83461 $x85667 $x86427) (or $x78013 $x83461 $x86427 $x87358) (or $x51 $x83381 $x83461 $x85094) (or $x83461 $x83769 $x84669 $x85448 $x88373) (or $x83461 $x83846 $x84371 $x86392 $x88800) (or $x83461 $x83846 (not $x84243) $x90683) (or $x78013 $x83461 $x85058 $x85667) $x189013 (or $x83461 $x87192 $x89660) (or $x78013 $x83461 $x83769 $x87358) (or $x78013 $x83461 $x84203 $x87358) (or $x78013 $x83461 $x85399 $x87358) (or $x83461 $x85399 $x85667 $x86392 $x88800) (or $x78013 $x83461 $x85058 $x87352) (or $x83461 $x86863 (not $x88414)) $x94167 (or $x51 $x83461 $x84214) (or $x83461 $x83639 $x84983 $x87019 $x87473 $x87619) (or $x83461 $x84983 $x85058 $x87019 $x87473 $x87619) (or $x51 $x83461 $x83938 $x86339) (or $x51 $x546 $x83461 $x83938) (or $x51 $x27498 $x83461 $x84397 $x88186) (or $x83461 $x83673 $x83789) (or $x83461 $x83771 $x83789) (or $x83107 $x83461 $x83789 $x83846 $x84397) (or $x83461 $x86471 (not (<= (- (/ 10.0 3.0)) ?x6673))) (or $x83461 $x85058 $x85602 $x85670 $x89255) (or $x51 $x83461 (not (<= 0.0 (+ S_3 ?x7217 ?x2338 ?x357 ?x9001)))) (or $x51 $x83381 $x83461 $x88186) (or $x5907 $x83461 $x88339) (or $x1864 $x83461 $x83769 $x83883 $x83938 $x86762 $x88149) (or $x1864 $x83461 $x83846 $x83883 $x83938 $x84485 $x86762) (or $x5907 $x83107 $x83461 $x83846 $x84397) (or $x51 $x83086 $x83461) (or $x454 $x83392 $x83461 $x83883 $x87692) (or $x83461 $x84802 $x87192) (or $x51 $x83461 $x84006) (or $x11105 $x83461 $x83938 $x85094 $x87727 $x88149) (or $x51 $x27498 $x83461 $x84510 $x88186) (or $x51 $x83107 $x83461 $x84397 $x88186) (or $x83461 $x83938 $x87548 $x88186) (or $x83461 $x83846 $x83938 $x87548) (or $x51 $x83107 $x83461 $x83769 $x84397) $x95293 (or $x546 $x83461 $x83883 $x87669 $x87692 $x88149) (or $x552 $x83461 $x83938 $x87691 $x87727 $x88149) (or $x546 $x11105 $x83461 $x83938 $x87727 $x88149) (or $x494 $x546 $x83461 $x83883 $x83938 $x86762 $x88149) $x190420 (or $x83461 $x83639 $x84805 $x86863) (or $x51 $x83392 $x83461) (or $x51 $x83461 $x83938 $x88186) (or $x83461 $x83769 $x83938 $x84734 $x88149) (or $x51 $x83461 $x83846 $x83938) (or $x83461 $x84371 $x86392 $x88186 $x88800) (or $x83461 $x83846 $x85667 $x86392 $x88800) (or (<= 0.0 (+ ?x258 L_0)) $x83107 $x83461 $x84510 $x88186) (or $x5907 $x83461 $x85002) (or $x5907 $x83461 $x85606 $x88186) (or $x5907 $x83461 $x83639 $x85606) (or $x5907 $x83461 $x85094 $x85606) (or $x51 $x83107 $x83461 $x83846 $x84397) (or $x5907 $x83107 $x83461 $x83769 $x84397) (or $x83107 $x83461 $x83789 $x84397 $x88186) $x191175 (or $x51 $x83461 $x85033) $x96030 (or $x546 $x11105 $x83461 $x87698 $x87727 $x88149) (or $x83107 $x83461 $x83789 $x84397 $x85094) (or $x5907 $x83107 $x83461 $x84397 $x85094) (or $x51 $x83107 $x83461 $x84397 $x85094) (or $x83461 $x84111 $x87192) (or $x552 $x83461 $x87691 $x87698 $x87727 $x88149) $x96235 (or $x51 $x2720 $x83461 $x83769 $x84510 $x86182) (or $x51 $x83107 $x83461 $x83769 $x84510) (or $x83461 $x83846 $x83883 $x84486 $x85993 $x88149) (or $x83461 $x83769 $x84983 $x87019 $x87473 $x87619) (or $x546 $x83461 $x83938 $x84734 $x88149) (or $x83461 $x83499 $x83938 $x86339 $x87727 $x88149) (or $x546 $x83461 $x83938 $x87548) $x96499 (or $x83461 $x84167 $x84243 $x85343) (or $x83461 $x85343 $x85381 $x87352 $x90683) (or $x83461 $x83769 $x84805 $x86863) (or $x83461 $x83769 $x84371 $x86392 $x88800) (or $x83461 $x83639 $x84684 $x86182 $x87358 $x87925) $x96708 (or $x494 $x83461 $x83883 $x83938 $x86339 $x86762 $x88149) (or $x83461 $x83499 $x83938 $x87727 $x88149 $x88186) (or $x83461 $x84669 $x85058 $x85448 $x88373) $x96807 (or $x83461 $x84684 $x85399 $x86182 $x87358 $x87925) (or $x5907 $x83461 $x85399 $x85606) (or $x83394 $x83461 $x84684 $x86182 $x87358 $x87925) (or $x83461 $x84684 $x86182 $x86427 $x87358 $x87925) (or $x5907 $x83461 $x85058 $x85606) (or $x5907 $x83461 $x85381 $x85606) (or $x5907 $x83461 $x85606 $x86427) (or $x5907 $x83461 $x83769 $x85606) (or $x5907 $x83461 $x83846 $x85606) (or $x68729 $x83461 $x85058 $x85362 $x87188) (or $x83461 $x84805 $x85399 $x86863) (or $x68729 $x83461 $x83639 $x85362 $x87188) (or $x83107 $x83461 $x83769 $x84510 $x84684 $x86182 $x87925) (or $x83461 $x83769 $x84684 $x86182 $x87358 $x87925) (or $x83461 $x85667 $x86392 $x86427 $x88800) (or $x83461 $x85058 $x85667 $x86392 $x88800) (or $x83461 $x84684 $x86182 $x87358 $x87925 $x88186) (or $x83461 $x84684 $x85094 $x86182 $x87358 $x87925) (or $x83461 $x83846 $x85343 $x87352 $x90683) (or $x83461 $x85058 $x85343 $x87352 $x90683) (or $x83461 $x83769 $x85667 $x86392 $x88800) (or $x83107 $x83461 $x84510 $x84684 $x86182 $x87925 $x88186) (or $x68729 $x83461 $x83846 $x85362 $x87188) (or $x83461 $x85094 $x85667 $x86392 $x88800) (or $x83461 $x85381 $x85667 $x86392 $x88800) $x34 (not (>= (+ L_2 S_3 ?x388) 0.0)) (<= (+ ?x1112 S_0 L_0) 0.0) (<= ?x1096 0.0))))))))))))))))))))))))))))))))))))))))))))))))))))))))))))))))))))))))))))))))))))))))))))))))))))))))))))))))))))))))))))))))))))))))))))))))))))))))))))))))))))))))))))))))))))))))))))))))))))))))))))))))))))))))))))))))))))))))))))))
(check-sat)
